Problem:    
Rows:       9
Columns:    9
Non-zeros:  13
Status:     OPTIMAL
Objective:  34488000 (MAXimum)

   No.   Row name   St   Activity     Lower bound   Upper bound    Marginal
------ ------------ -- ------------- ------------- ------------- -------------
     1 r_0          B          68.44                     69.4805 
     2 r_1          B          68.44                     69.4805 
     3 r_2          B              0             0             = 
     4 r_3          NU         68.44                       68.44        100000 
     5 r_4          NU         68.44                       68.44        100000 
     6 r_5          NU         68.44                       68.44        100000 
     7 r_6          NU         68.44                       68.44        100000 
     8 r_7          NU         68.44                       68.44        100000 
     9 r_8          NU          2.68                        2.68        100000 

   No. Column name  St   Activity     Lower bound   Upper bound    Marginal
------ ------------ -- ------------- ------------- ------------- -------------
     1 r5_volGoal   B          68.44             0               
     2 r6_volGoal   B          68.44             0               
     3 r7_volGoal   B          68.44             0               
     4 r8_volGoal   B          68.44             0               
     5 r9_volGoal   B          68.44             0               
     6 r10_volGoal  B           2.68             0               
     7 r5_z1_j4     NL             0             0                       < eps
     8 r6_z1_j4     NL             0             0                       < eps
     9 j4_r10       NL             0             0                       < eps

Karush-Kuhn-Tucker optimality conditions:

KKT.PE: max.abs.err = 0.00e+00 on row 0
        max.rel.err = 0.00e+00 on row 0
        High quality

KKT.PB: max.abs.err = 0.00e+00 on row 0
        max.rel.err = 0.00e+00 on row 0
        High quality

KKT.DE: max.abs.err = 0.00e+00 on column 0
        max.rel.err = 0.00e+00 on column 0
        High quality

KKT.DB: max.abs.err = 0.00e+00 on row 0
        max.rel.err = 0.00e+00 on row 0
        High quality

End of output
